TYPE : Vertex Cover
DIMENSION: 36
EDGE_DATA_SECTION:
0 2
0 5
0 7
0 20
0 24
1 4
1 5
1 24
1 25
2 9
2 11
2 12
2 16
2 28
2 34
3 5
3 16
3 27
4 6
4 7
4 8
4 19
4 20
4 22
4 26
4 30
5 16
5 17
5 19
5 22
5 31
6 17
6 19
6 21
6 27
7 11
7 21
7 28
7 33
8 10
8 25
8 30
8 34
9 11
9 15
9 32
9 33
10 20
10 25
10 30
10 31
11 13
11 18
11 19
11 22
12 15
12 20
13 14
13 18
13 21
13 26
13 30
14 17
14 25
14 34
15 20
16 19
16 23
16 33
17 21
17 26
18 22
18 27
18 32
18 34
19 20
19 29
19 34
20 21
20 30
20 32
21 32
22 34
22 35
23 34
24 26
24 32
25 26
25 27
25 28
25 31
26 30
26 33
27 31
28 33
31 33
31 34
32 35
-1
VERTEX_DEGREE:
5.0 4.0 7.0 3.0 9.0 8.0 5.0 6.0 5.0 5.0 5.0 7.0 3.0 6.0 4.0 3.0 6.0 5.0 6.0 8.0 9.0 6.0 6.0 2.0 4.0 8.0 7.0 5.0 4.0 1.0 6.0 6.0 6.0 6.0 8.0 2.0
VERTEX_COVER:
2 4 5 7 10 11 13 15 16 17 19 20 21 22 24 25 27 30 32 33 34
EOF
